(set-logic HORN)
(set-info :source |
    Benchmark: C_VC
    Output by Princess (http://www.philipp.ruemmer.org/princess.shtml)
|)
(set-info :status sat)
;===============================================================================
; Encoding of Heap sorts and operations
;-------------------------------------------------------------------------------
(define-sort Addr() Int)
(declare-datatypes ((HeapObject 0) (node 0))
                   (((O_Int (getInt Int)) (O_UInt (getUInt Int)) (O_Addr (getAddr Addr)) (O_node (getnode node)) (defObj))
                   ((node (data Int) (next Addr) (prev Addr)))))
(declare-datatypes ((AllocResHeap 0) (Heap 0))
                   (((AllocResHeap   (newHeap Heap) (newAddr Addr)))
                    ((HeapCtor (HeapSize Int)
                               (HeapContents (Array Addr HeapObject))))))
(define-fun nullAddr  () Addr 0)
(define-fun valid     ((h Heap) (p Addr)) Bool
  (and (>= (HeapSize h) p) (> p 0)))
(define-fun emptyHeap () Heap (
  HeapCtor 0 (( as const (Array Addr HeapObject)) defObj)))
(define-fun read ((h Heap) (p Addr)) HeapObject
  (ite (valid h p)
       (select (HeapContents h) p)
       defObj))
(define-fun write ((h Heap) (p Addr) (o HeapObject)) Heap
  (ite (valid h p)
       (HeapCtor (HeapSize h) (store (HeapContents h) p o))
       h))
(define-fun alloc   ((h Heap) (o HeapObject)) AllocResHeap
  (AllocResHeap (HeapCtor (+ 1 (HeapSize h))
                    (store (HeapContents h) (+ 1 (HeapSize h)) o))
          (+ 1 (HeapSize h))))

;===============================================================================
(declare-fun inv_main12 (Heap Int Int Int Int Addr Addr) Bool)
(declare-fun inv_main15 (Heap Int Int Int Int Addr Addr Int) Bool)
(declare-fun inv_main18 (Heap Int Int Int Int Addr Addr) Bool)
(declare-fun inv_main19 (Heap Int Int Int Int Addr Addr) Bool)
(declare-fun inv_main22 (Heap Int Int Int Int Addr Addr) Bool)
(declare-fun inv_main34 (Heap Int Int Addr Int Int Int Addr) Bool)
(declare-fun inv_main37 (Heap Int Int Addr Int Int Int Addr Int) Bool)
(declare-fun inv_main4 (Heap Int Int) Bool)
(declare-fun inv_main40 (Heap Int Int Addr Int Int Int Addr) Bool)
(declare-fun inv_main41 (Heap Int Int Addr Int Int Int Addr) Bool)
(declare-fun inv_main43 (Heap Int Int Addr Int Int Addr) Bool)
(declare-fun inv_main46 (Heap Int Int Addr Int Int Addr) Bool)
(declare-fun inv_main49 (Heap Int Int Addr Addr Int) Bool)
(declare-fun inv_main51 (Heap Int Int Addr Addr Int) Bool)
(declare-fun inv_main52 (Heap Int Int Addr Addr Int Addr) Bool)
(declare-fun inv_main64 (Heap Int Int Addr Addr Int Addr) Bool)
(declare-fun inv_main67 (Heap Int Int Addr Addr Int) Bool)
(declare-fun inv_main8 (Heap Int Int Int Int Addr) Bool)
(assert (forall ((var0 Heap)) (or (not (= var0 emptyHeap)) (inv_main4 var0 2 1))))
(assert (forall ((var0 Addr) (var1 Int) (var2 Addr) (var3 Addr) (var4 Int) (var5 Int) (var6 Heap)) (or (not (and (inv_main52 var6 var5 var4 var3 var2 var1 var0) (and (is-O_node (read var6 var2)) (not (= var4 (data (getnode (read var6 var2)))))))) (inv_main67 var6 var5 var4 var3 var2 var1))))
(assert (forall ((var0 Int) (var1 Addr) (var2 Addr) (var3 Int) (var4 Int) (var5 Heap)) (or (not (and (inv_main49 var5 var4 var3 var2 var1 var0) (and (not (= var0 (+ 1 var4))) (= var1 nullAddr)))) (inv_main67 var5 var4 var3 var2 var1 var0))))
(assert (forall ((var0 Addr) (var1 Int) (var2 Int) (var3 Int) (var4 Addr) (var5 Int) (var6 Int) (var7 Heap)) (or (not (and (inv_main40 var7 var6 var5 var4 var3 var2 var1 var0) (is-O_node (read var7 var0)))) (inv_main41 (write var7 var0 (O_node (node (data (getnode (read var7 var0))) (next (getnode (read var7 var0))) nullAddr))) var6 var5 var4 var3 var2 var1 var0))))
(assert (forall ((var0 Int) (var1 Addr) (var2 Addr) (var3 Int) (var4 Int) (var5 Int) (var6 Int) (var7 Heap)) (or (not (inv_main15 var7 var6 var5 var4 var3 var2 var1 var0)) (inv_main15 var7 var6 var5 var4 var3 var2 var1 var0))))
(assert (forall ((var0 Addr) (var1 Int) (var2 Int) (var3 Int) (var4 Int) (var5 node) (var6 Heap) (var7 Addr) (var8 Addr) (var9 Int) (var10 Int) (var11 Int) (var12 Int) (var13 Heap)) (or (not (and (inv_main8 var13 var12 var11 var10 var9 var8) (and (and (= nullAddr var7) (and (and (and (and (and (and (= var6 (newHeap (alloc var13 (O_node var5)))) (= var4 var12)) (= var3 var11)) (= var2 var10)) (= var1 var9)) (= var0 var8)) (= var7 (newAddr (alloc var13 (O_node var5)))))) (<= 0 (+ var10 (- 1)))))) (inv_main15 var6 var4 var3 var2 var1 var0 var7 1))))
(assert (forall ((var0 Addr) (var1 Int) (var2 Int) (var3 Int) (var4 Int) (var5 Heap) (var6 Addr) (var7 Addr) (var8 Addr) (var9 Int) (var10 Int) (var11 Int) (var12 Int) (var13 Heap)) (or (not (and (inv_main19 var13 var12 var11 var10 var9 var8 var7) (and (and (not (= var6 nullAddr)) (is-O_node (read var13 var7))) (and (and (and (and (and (and (= var5 (write var13 var7 (O_node (node (data (getnode (read var13 var7))) (next (getnode (read var13 var7))) nullAddr)))) (= var4 var12)) (= var3 var11)) (= var2 var10)) (= var1 var9)) (= var6 var8)) (= var0 var7))))) (inv_main22 var5 var4 var3 var2 var1 var6 var0))))
(assert (forall ((var0 Addr) (var1 Int) (var2 Addr) (var3 Addr) (var4 Int) (var5 Int) (var6 Heap) (var7 Addr) (var8 Addr) (var9 Int) (var10 Addr) (var11 Addr) (var12 Int) (var13 Int) (var14 Heap) (var15 Addr) (var16 Addr) (var17 Int) (var18 Addr) (var19 Addr) (var20 Int) (var21 Int) (var22 Heap)) (or (not (and (inv_main64 var22 var21 var20 var19 var18 var17 var16) (and (not (= var15 nullAddr)) (and (and (is-O_node (read var22 var16)) (and (and (and (and (and (and (and (= var14 var22) (= var13 var21)) (= var12 var20)) (= var11 var19)) (= var10 var18)) (= var9 var17)) (= var8 var16)) (= var7 (next (getnode (read var22 var16)))))) (and (and (and (and (and (and (and (= var6 (write var14 var8 defObj)) (= var5 var13)) (= var4 var12)) (= var3 var11)) (= var2 var10)) (= var1 var9)) (= var0 var8)) (= var15 var7)))))) (inv_main64 var6 var5 var4 var3 var2 var1 var15))))
(assert (forall ((var0 Int) (var1 Addr) (var2 Addr) (var3 Int) (var4 Int) (var5 Heap)) (or (not (and (inv_main49 var5 var4 var3 var2 var1 var0) (and (not (= var2 nullAddr)) (and (= var0 (+ 1 var4)) (= var1 nullAddr))))) (inv_main64 var5 var4 var3 var2 var1 var0 var2))))
(assert (forall ((var0 Addr) (var1 Addr) (var2 Int) (var3 Int) (var4 Int) (var5 Int) (var6 Heap)) (or (not (and (inv_main12 var6 var5 var4 var3 var2 var1 var0) (is-O_node (read var6 var0)))) (inv_main18 (write var6 var0 (O_node (node var2 (next (getnode (read var6 var0))) (prev (getnode (read var6 var0)))))) var5 var4 var3 var2 var1 var0))))
(assert (forall ((var0 Addr) (var1 Addr) (var2 Int) (var3 Int) (var4 Int) (var5 Int) (var6 Heap)) (or (not (and (inv_main18 var6 var5 var4 var3 var2 var1 var0) (is-O_node (read var6 var0)))) (inv_main19 (write var6 var0 (O_node (node (data (getnode (read var6 var0))) var1 (prev (getnode (read var6 var0)))))) var5 var4 var3 var2 var1 var0))))
(assert (forall ((var0 Int) (var1 Int) (var2 Int) (var3 Addr) (var4 Int) (var5 Int) (var6 node) (var7 Heap) (var8 Addr) (var9 Addr) (var10 Int) (var11 Int) (var12 Int) (var13 Int) (var14 Heap)) (or (not (and (inv_main8 var14 var13 var12 var11 var10 var9) (and (and (not (= nullAddr var8)) (and (and (and (and (and (and (and (= var7 (newHeap (alloc var14 (O_node var6)))) (= var5 var13)) (= var4 var12)) (= var3 var9)) (= var2 3)) (= var1 var12)) (= var0 var12)) (= var8 (newAddr (alloc var14 (O_node var6)))))) (not (<= 0 (+ var11 (- 1))))))) (inv_main34 var7 var5 var4 var3 var2 var1 var0 var8))))
(assert (forall ((var0 Addr) (var1 Int) (var2 Int) (var3 Int) (var4 Addr) (var5 Int) (var6 Int) (var7 Heap)) (or (not (and (inv_main34 var7 var6 var5 var4 var3 var2 var1 var0) (is-O_node (read var7 var0)))) (inv_main40 (write var7 var0 (O_node (node (data (getnode (read var7 var0))) nullAddr (prev (getnode (read var7 var0)))))) var6 var5 var4 var3 var2 var1 var0))))
(assert (forall ((var0 Addr) (var1 Int) (var2 Addr) (var3 Addr) (var4 Int) (var5 Int) (var6 Heap)) (or (not (and (inv_main52 var6 var5 var4 var3 var2 var1 var0) (and (is-O_node (read var6 var2)) (= var4 (data (getnode (read var6 var2))))))) (inv_main49 var6 var5 var4 var3 var0 (+ var1 1)))))
(assert (forall ((var0 Addr) (var1 Int) (var2 Int) (var3 Addr) (var4 Int) (var5 Int) (var6 Heap) (var7 Addr) (var8 Int) (var9 Int) (var10 Addr) (var11 Int) (var12 Int) (var13 Heap)) (or (not (and (inv_main46 var13 var12 var11 var10 var9 var8 var7) (and (is-O_node (read var13 var10)) (and (and (and (and (and (and (= var6 (write var13 var10 (O_node (node (data (getnode (read var13 var10))) (next (getnode (read var13 var10))) var7)))) (= var5 var12)) (= var4 var11)) (= var3 var10)) (= var2 var9)) (= var1 var8)) (= var0 var7))))) (inv_main49 var6 var5 var4 var0 var0 0))))
(assert (forall ((var0 Addr) (var1 Int) (var2 Int) (var3 Int) (var4 Int) (var5 Heap) (var6 Addr) (var7 Addr) (var8 Int) (var9 Int) (var10 Addr) (var11 Int) (var12 Int) (var13 Heap)) (or (not (and (inv_main43 var13 var12 var11 var10 var9 var8 var7) (and (and (= var6 nullAddr) (is-O_node (read var13 var7))) (and (and (and (and (and (and (= var5 (write var13 var7 (O_node (node (data (getnode (read var13 var7))) var10 (prev (getnode (read var13 var7))))))) (= var4 var12)) (= var3 var11)) (= var6 var10)) (= var2 var9)) (= var1 var8)) (= var0 var7))))) (inv_main49 var5 var4 var3 var0 var0 0))))
(assert (forall ((var0 Int) (var1 Addr) (var2 Int) (var3 Int) (var4 Int) (var5 Addr) (var6 Int) (var7 Int) (var8 Heap)) (or (not (inv_main37 var8 var7 var6 var5 var4 var3 var2 var1 var0)) (inv_main37 var8 var7 var6 var5 var4 var3 var2 var1 var0))))
(assert (forall ((var0 Int) (var1 Int) (var2 Int) (var3 Addr) (var4 Int) (var5 Int) (var6 node) (var7 Heap) (var8 Addr) (var9 Addr) (var10 Int) (var11 Int) (var12 Int) (var13 Int) (var14 Heap)) (or (not (and (inv_main8 var14 var13 var12 var11 var10 var9) (and (and (= nullAddr var8) (and (and (and (and (and (and (and (= var7 (newHeap (alloc var14 (O_node var6)))) (= var5 var13)) (= var4 var12)) (= var3 var9)) (= var2 3)) (= var1 var12)) (= var0 var12)) (= var8 (newAddr (alloc var14 (O_node var6)))))) (not (<= 0 (+ var11 (- 1))))))) (inv_main37 var7 var5 var4 var3 var2 var1 var0 var8 1))))
(assert (forall ((var0 Int) (var1 Addr) (var2 Addr) (var3 Int) (var4 Int) (var5 Heap)) (or (not (and (inv_main51 var5 var4 var3 var2 var1 var0) (is-O_node (read var5 var1)))) (inv_main52 var5 var4 var3 var2 var1 var0 (next (getnode (read var5 var1)))))))
(assert (forall ((var0 Addr) (var1 Int) (var2 Int) (var3 Int) (var4 Int) (var5 Heap) (var6 Addr) (var7 Addr) (var8 Int) (var9 Int) (var10 Addr) (var11 Int) (var12 Int) (var13 Heap)) (or (not (and (inv_main43 var13 var12 var11 var10 var9 var8 var7) (and (and (not (= var6 nullAddr)) (is-O_node (read var13 var7))) (and (and (and (and (and (and (= var5 (write var13 var7 (O_node (node (data (getnode (read var13 var7))) var10 (prev (getnode (read var13 var7))))))) (= var4 var12)) (= var3 var11)) (= var6 var10)) (= var2 var9)) (= var1 var8)) (= var0 var7))))) (inv_main46 var5 var4 var3 var6 var2 var1 var0))))
(assert (forall ((var0 Addr) (var1 Int) (var2 Int) (var3 Int) (var4 Int) (var5 node) (var6 Heap) (var7 Addr) (var8 Addr) (var9 Int) (var10 Int) (var11 Int) (var12 Int) (var13 Heap)) (or (not (and (inv_main8 var13 var12 var11 var10 var9 var8) (and (and (not (= nullAddr var7)) (and (and (and (and (and (and (= var6 (newHeap (alloc var13 (O_node var5)))) (= var4 var12)) (= var3 var11)) (= var2 var10)) (= var1 var9)) (= var0 var8)) (= var7 (newAddr (alloc var13 (O_node var5)))))) (<= 0 (+ var10 (- 1)))))) (inv_main12 var6 var4 var3 var2 var1 var0 var7))))
(assert (forall ((var0 Int) (var1 Addr) (var2 Addr) (var3 Int) (var4 Int) (var5 Heap)) (or (not (and (inv_main49 var5 var4 var3 var2 var1 var0) (not (= var1 nullAddr)))) (inv_main51 var5 var4 var3 var2 var1 var0))))
(assert (forall ((var0 Addr) (var1 Addr) (var2 Int) (var3 Int) (var4 Int) (var5 Int) (var6 Heap) (var7 Addr) (var8 Addr) (var9 Int) (var10 Int) (var11 Int) (var12 Int) (var13 Heap)) (or (not (and (inv_main22 var13 var12 var11 var10 var9 var8 var7) (and (is-O_node (read var13 var8)) (and (and (and (and (and (and (= var6 (write var13 var8 (O_node (node (data (getnode (read var13 var8))) (next (getnode (read var13 var8))) var7)))) (= var5 var12)) (= var4 var11)) (= var3 var10)) (= var2 var9)) (= var1 var8)) (= var0 var7))))) (inv_main8 var6 var5 var4 (+ var3 (- 1)) var2 var0))))
(assert (forall ((var0 Addr) (var1 Int) (var2 Int) (var3 Int) (var4 Int) (var5 Heap) (var6 Addr) (var7 Addr) (var8 Addr) (var9 Int) (var10 Int) (var11 Int) (var12 Int) (var13 Heap)) (or (not (and (inv_main19 var13 var12 var11 var10 var9 var8 var7) (and (and (= var6 nullAddr) (is-O_node (read var13 var7))) (and (and (and (and (and (and (= var5 (write var13 var7 (O_node (node (data (getnode (read var13 var7))) (next (getnode (read var13 var7))) nullAddr)))) (= var4 var12)) (= var3 var11)) (= var2 var10)) (= var1 var9)) (= var6 var8)) (= var0 var7))))) (inv_main8 var5 var4 var3 (+ var2 (- 1)) var1 var0))))
(assert (forall ((var0 Int) (var1 Int) (var2 Heap)) (or (not (inv_main4 var2 var1 var0)) (inv_main8 var2 var1 var0 var1 var0 nullAddr))))
(assert (forall ((var0 Addr) (var1 Int) (var2 Int) (var3 Int) (var4 Addr) (var5 Int) (var6 Int) (var7 Heap) (var8 Addr) (var9 Int) (var10 Int) (var11 Int) (var12 Addr) (var13 Int) (var14 Int) (var15 Heap)) (or (not (and (inv_main41 var15 var14 var13 var12 var11 var10 var9 var8) (and (is-O_node (read var15 var8)) (and (and (and (and (and (and (and (= var7 (write var15 var8 (O_node (node var9 (next (getnode (read var15 var8))) (prev (getnode (read var15 var8))))))) (= var6 var14)) (= var5 var13)) (= var4 var12)) (= var3 var11)) (= var2 var10)) (= var1 var9)) (= var0 var8))))) (inv_main43 var7 var6 var5 var4 var3 var2 var0))))
(assert (forall ((var0 Addr) (var1 Addr) (var2 Int) (var3 Int) (var4 Int) (var5 Int) (var6 Heap)) (not (and (inv_main12 var6 var5 var4 var3 var2 var1 var0) (not (is-O_node (read var6 var0)))))))
(assert (forall ((var0 Addr) (var1 Addr) (var2 Int) (var3 Int) (var4 Int) (var5 Int) (var6 Heap)) (not (and (inv_main18 var6 var5 var4 var3 var2 var1 var0) (not (is-O_node (read var6 var0)))))))
(assert (forall ((var0 Addr) (var1 Addr) (var2 Int) (var3 Int) (var4 Int) (var5 Int) (var6 Heap)) (not (and (inv_main19 var6 var5 var4 var3 var2 var1 var0) (not (is-O_node (read var6 var0)))))))
(assert (forall ((var0 Addr) (var1 Addr) (var2 Int) (var3 Int) (var4 Int) (var5 Int) (var6 Heap)) (not (and (inv_main22 var6 var5 var4 var3 var2 var1 var0) (not (is-O_node (read var6 var1)))))))
(assert (forall ((var0 Addr) (var1 Int) (var2 Int) (var3 Int) (var4 Addr) (var5 Int) (var6 Int) (var7 Heap)) (not (and (inv_main34 var7 var6 var5 var4 var3 var2 var1 var0) (not (is-O_node (read var7 var0)))))))
(assert (forall ((var0 Addr) (var1 Int) (var2 Int) (var3 Int) (var4 Addr) (var5 Int) (var6 Int) (var7 Heap)) (not (and (inv_main40 var7 var6 var5 var4 var3 var2 var1 var0) (not (is-O_node (read var7 var0)))))))
(assert (forall ((var0 Addr) (var1 Int) (var2 Int) (var3 Int) (var4 Addr) (var5 Int) (var6 Int) (var7 Heap)) (not (and (inv_main41 var7 var6 var5 var4 var3 var2 var1 var0) (not (is-O_node (read var7 var0)))))))
(assert (forall ((var0 Addr) (var1 Int) (var2 Int) (var3 Addr) (var4 Int) (var5 Int) (var6 Heap)) (not (and (inv_main43 var6 var5 var4 var3 var2 var1 var0) (not (is-O_node (read var6 var0)))))))
(assert (forall ((var0 Addr) (var1 Int) (var2 Int) (var3 Addr) (var4 Int) (var5 Int) (var6 Heap)) (not (and (inv_main46 var6 var5 var4 var3 var2 var1 var0) (not (is-O_node (read var6 var3)))))))
(assert (forall ((var0 Int) (var1 Addr) (var2 Addr) (var3 Int) (var4 Int) (var5 Heap)) (not (and (inv_main51 var5 var4 var3 var2 var1 var0) (not (is-O_node (read var5 var1)))))))
(assert (forall ((var0 Addr) (var1 Int) (var2 Addr) (var3 Addr) (var4 Int) (var5 Int) (var6 Heap)) (not (and (inv_main52 var6 var5 var4 var3 var2 var1 var0) (not (is-O_node (read var6 var2)))))))
(assert (forall ((var0 Addr) (var1 Int) (var2 Addr) (var3 Addr) (var4 Int) (var5 Int) (var6 Heap)) (not (and (inv_main64 var6 var5 var4 var3 var2 var1 var0) (not (is-O_node (read var6 var0)))))))
(assert (forall ((var0 Int) (var1 Addr) (var2 Addr) (var3 Int) (var4 Int) (var5 Heap)) (not (inv_main67 var5 var4 var3 var2 var1 var0))))
(check-sat)
